p cnf 168 593
c p weight 18 -1 0
c p weight -18 1 0
c p weight 20 6.12323399573676603586882014729198302312846062338790031898128063403419218957424163818359375E-17 0
c p weight -20 1 0
c p weight 21 1 0
c p weight -21 1 0
c p weight 22 -1 0
c p weight -22 1 0
c p weight 24 -1 0
c p weight -24 1 0
c p weight 25 -1 0
c p weight -25 1 0
c p weight 27 -1 0
c p weight -27 1 0
c p weight 29 6.12323399573676603586882014729198302312846062338790031898128063403419218957424163818359375E-17 0
c p weight -29 1 0
c p weight 30 1 0
c p weight -30 1 0
c p weight 31 -1 0
c p weight -31 1 0
c p weight 33 -1 0
c p weight -33 1 0
c p weight 34 -1 0
c p weight -34 1 0
c p weight 36 -1 0
c p weight -36 1 0
c p weight 38 6.12323399573676603586882014729198302312846062338790031898128063403419218957424163818359375E-17 0
c p weight -38 1 0
c p weight 39 1 0
c p weight -39 1 0
c p weight 40 -1 0
c p weight -40 1 0
c p weight 42 -1 0
c p weight -42 1 0
c p weight 44 -1 0
c p weight -44 1 0
c p weight 46 6.12323399573676603586882014729198302312846062338790031898128063403419218957424163818359375E-17 0
c p weight -46 1 0
c p weight 47 1 0
c p weight -47 1 0
c p weight 48 -1 0
c p weight -48 1 0
c p weight 50 -1 0
c p weight -50 1 0
c p weight 51 -1 0
c p weight -51 1 0
c p weight 53 -1 0
c p weight -53 1 0
c p weight 55 6.12323399573676603586882014729198302312846062338790031898128063403419218957424163818359375E-17 0
c p weight -55 1 0
c p weight 56 1 0
c p weight -56 1 0
c p weight 57 -1 0
c p weight -57 1 0
c p weight 59 -1 0
c p weight -59 1 0
c p weight 61 -1 0
c p weight -61 1 0
c p weight 63 6.12323399573676603586882014729198302312846062338790031898128063403419218957424163818359375E-17 0
c p weight -63 1 0
c p weight 64 1 0
c p weight -64 1 0
c p weight 65 -1 0
c p weight -65 1 0
c p weight 67 -1 0
c p weight -67 1 0
c p weight 68 -1 0
c p weight -68 1 0
c p weight 70 -1 0
c p weight -70 1 0
c p weight 72 6.12323399573676603586882014729198302312846062338790031898128063403419218957424163818359375E-17 0
c p weight -72 1 0
c p weight 73 1 0
c p weight -73 1 0
c p weight 74 -1 0
c p weight -74 1 0
c p weight 76 -1 0
c p weight -76 1 0
c p weight 77 -1 0
c p weight -77 1 0
c p weight 78 -1 0
c p weight -78 1 0
c p weight 80 -1 0
c p weight -80 1 0
c p weight 82 6.12323399573676603586882014729198302312846062338790031898128063403419218957424163818359375E-17 0
c p weight -82 1 0
c p weight 83 1 0
c p weight -83 1 0
c p weight 84 -1 0
c p weight -84 1 0
c p weight 86 -1 0
c p weight -86 1 0
c p weight 89 -1 0
c p weight -89 1 0
c p weight 90 -1 0
c p weight -90 1 0
c p weight 92 -1 0
c p weight -92 1 0
c p weight 94 6.12323399573676603586882014729198302312846062338790031898128063403419218957424163818359375E-17 0
c p weight -94 1 0
c p weight 95 1 0
c p weight -95 1 0
c p weight 96 -1 0
c p weight -96 1 0
c p weight 98 -1 0
c p weight -98 1 0
c p weight 101 -1 0
c p weight -101 1 0
c p weight 102 -1 0
c p weight -102 1 0
c p weight 104 -1 0
c p weight -104 1 0
c p weight 106 6.12323399573676603586882014729198302312846062338790031898128063403419218957424163818359375E-17 0
c p weight -106 1 0
c p weight 107 1 0
c p weight -107 1 0
c p weight 108 -1 0
c p weight -108 1 0
c p weight 110 -1 0
c p weight -110 1 0
c p weight 113 -1 0
c p weight -113 1 0
c p weight 115 -1 0
c p weight -115 1 0
c p weight 117 6.12323399573676603586882014729198302312846062338790031898128063403419218957424163818359375E-17 0
c p weight -117 1 0
c p weight 118 1 0
c p weight -118 1 0
c p weight 119 -1 0
c p weight -119 1 0
c p weight 121 -1 0
c p weight -121 1 0
c p weight 124 -1 0
c p weight -124 1 0
c p weight 125 -1 0
c p weight -125 1 0
c p weight 127 -1 0
c p weight -127 1 0
c p weight 129 6.12323399573676603586882014729198302312846062338790031898128063403419218957424163818359375E-17 0
c p weight -129 1 0
c p weight 130 1 0
c p weight -130 1 0
c p weight 131 -1 0
c p weight -131 1 0
c p weight 133 -1 0
c p weight -133 1 0
c p weight 136 -1 0
c p weight -136 1 0
c p weight 138 -1 0
c p weight -138 1 0
c p weight 140 6.12323399573676603586882014729198302312846062338790031898128063403419218957424163818359375E-17 0
c p weight -140 1 0
c p weight 141 1 0
c p weight -141 1 0
c p weight 142 -1 0
c p weight -142 1 0
c p weight 144 -1 0
c p weight -144 1 0
c p weight 147 -1 0
c p weight -147 1 0
c p weight 148 -1 0
c p weight -148 1 0
c p weight 150 -1 0
c p weight -150 1 0
c p weight 152 6.12323399573676603586882014729198302312846062338790031898128063403419218957424163818359375E-17 0
c p weight -152 1 0
c p weight 153 1 0
c p weight -153 1 0
c p weight 154 -1 0
c p weight -154 1 0
c p weight 156 -1 0
c p weight -156 1 0
c p weight 159 -1 0
c p weight -159 1 0
c p weight 160 -1 0
c p weight -160 1 0
c p weight 162 -1 0
c p weight -162 1 0
c p weight 164 6.12323399573676603586882014729198302312846062338790031898128063403419218957424163818359375E-17 0
c p weight -164 1 0
c p weight 165 1 0
c p weight -165 1 0
c p weight 166 -1 0
c p weight -166 1 0
c p weight 168 -1 0
c p weight -168 1 0
-15 0
-13 0
-11 0
-9 0
-7 0
-5 0
-3 0
-1 0
17 1 -2 0
17 -1 2 0
-17 1 2 0
-17 -1 -2 0
-18 1 0
-18 2 0
18 -1 -2 0
19 -1 17 0
-19 1 17 0
-20 17 0
19 -20 -1 0
-19 -20 1 0
19 20 1 -17 0
-19 20 -1 -17 0
-21 17 0
19 -21 1 0
-19 -21 -1 0
19 21 -1 -17 0
-19 21 1 -17 0
-22 19 0
-22 17 0
-22 -1 0
22 -19 1 -17 0
23 19 -17 0
23 -19 17 0
-23 19 17 0
-23 -19 -17 0
-24 19 0
-24 17 0
24 -19 -17 0
25 -23 0
-25 23 0
26 3 -4 0
26 -3 4 0
-26 3 4 0
-26 -3 -4 0
-27 3 0
-27 4 0
27 -3 -4 0
28 -3 26 0
-28 3 26 0
-29 26 0
28 -29 -3 0
-28 -29 3 0
28 29 3 -26 0
-28 29 -3 -26 0
-30 26 0
28 -30 3 0
-28 -30 -3 0
28 30 -3 -26 0
-28 30 3 -26 0
-31 28 0
-31 26 0
-31 -3 0
31 -28 3 -26 0
32 28 -26 0
32 -28 26 0
-32 28 26 0
-32 -28 -26 0
-33 28 0
-33 26 0
33 -28 -26 0
34 -32 0
-34 32 0
35 5 -6 0
35 -5 6 0
-35 5 6 0
-35 -5 -6 0
-36 5 0
-36 6 0
36 -5 -6 0
37 -5 35 0
-37 5 35 0
-38 35 0
37 -38 -5 0
-37 -38 5 0
37 38 5 -35 0
-37 38 -5 -35 0
-39 35 0
37 -39 5 0
-37 -39 -5 0
37 39 -5 -35 0
-37 39 5 -35 0
-40 37 0
-40 35 0
-40 -5 0
40 -37 5 -35 0
41 37 -35 0
41 -37 35 0
-41 37 35 0
-41 -37 -35 0
-42 37 0
-42 35 0
42 -37 -35 0
43 7 -8 0
43 -7 8 0
-43 7 8 0
-43 -7 -8 0
-44 7 0
-44 8 0
44 -7 -8 0
45 -7 43 0
-45 7 43 0
-46 43 0
45 -46 -7 0
-45 -46 7 0
45 46 7 -43 0
-45 46 -7 -43 0
-47 43 0
45 -47 7 0
-45 -47 -7 0
45 47 -7 -43 0
-45 47 7 -43 0
-48 45 0
-48 43 0
-48 -7 0
48 -45 7 -43 0
49 45 -43 0
49 -45 43 0
-49 45 43 0
-49 -45 -43 0
-50 45 0
-50 43 0
50 -45 -43 0
51 -49 0
-51 49 0
52 9 -10 0
52 -9 10 0
-52 9 10 0
-52 -9 -10 0
-53 9 0
-53 10 0
53 -9 -10 0
54 -9 52 0
-54 9 52 0
-55 52 0
54 -55 -9 0
-54 -55 9 0
54 55 9 -52 0
-54 55 -9 -52 0
-56 52 0
54 -56 9 0
-54 -56 -9 0
54 56 -9 -52 0
-54 56 9 -52 0
-57 54 0
-57 52 0
-57 -9 0
57 -54 9 -52 0
58 54 -52 0
58 -54 52 0
-58 54 52 0
-58 -54 -52 0
-59 54 0
-59 52 0
59 -54 -52 0
60 11 -12 0
60 -11 12 0
-60 11 12 0
-60 -11 -12 0
-61 11 0
-61 12 0
61 -11 -12 0
62 -11 60 0
-62 11 60 0
-63 60 0
62 -63 -11 0
-62 -63 11 0
62 63 11 -60 0
-62 63 -11 -60 0
-64 60 0
62 -64 11 0
-62 -64 -11 0
62 64 -11 -60 0
-62 64 11 -60 0
-65 62 0
-65 60 0
-65 -11 0
65 -62 11 -60 0
66 62 -60 0
66 -62 60 0
-66 62 60 0
-66 -62 -60 0
-67 62 0
-67 60 0
67 -62 -60 0
68 -66 0
-68 66 0
69 13 -14 0
69 -13 14 0
-69 13 14 0
-69 -13 -14 0
-70 13 0
-70 14 0
70 -13 -14 0
71 -13 69 0
-71 13 69 0
-72 69 0
71 -72 -13 0
-71 -72 13 0
71 72 13 -69 0
-71 72 -13 -69 0
-73 69 0
71 -73 13 0
-71 -73 -13 0
71 73 -13 -69 0
-71 73 13 -69 0
-74 71 0
-74 69 0
-74 -13 0
74 -71 13 -69 0
75 71 -69 0
75 -71 69 0
-75 71 69 0
-75 -71 -69 0
-76 71 0
-76 69 0
76 -71 -69 0
77 -75 0
-77 75 0
78 -16 0
-78 16 0
79 15 -16 0
79 -15 16 0
-79 15 16 0
-79 -15 -16 0
-80 15 0
-80 16 0
80 -15 -16 0
81 -15 79 0
-81 15 79 0
-82 79 0
81 -82 -15 0
-81 -82 15 0
81 82 15 -79 0
-81 82 -15 -79 0
-83 79 0
81 -83 15 0
-81 -83 -15 0
81 83 -15 -79 0
-81 83 15 -79 0
-84 81 0
-84 79 0
-84 -15 0
84 -81 15 -79 0
85 81 -79 0
85 -81 79 0
-85 81 79 0
-85 -81 -79 0
-86 81 0
-86 79 0
86 -81 -79 0
87 19 -81 0
87 -19 81 0
-87 19 81 0
-87 -19 -81 0
88 23 -85 0
88 -23 85 0
-88 23 85 0
-88 -23 -85 0
-89 19 0
-89 85 0
-89 81 -23 0
-89 -81 23 0
89 -19 81 23 -85 0
89 -19 -81 -23 -85 0
90 -88 0
-90 88 0
91 19 -88 0
91 -19 88 0
-91 19 88 0
-91 -19 -88 0
-92 19 0
-92 88 0
92 -19 -88 0
93 -19 91 0
-93 19 91 0
-94 91 0
93 -94 -19 0
-93 -94 19 0
93 94 19 -91 0
-93 94 -19 -91 0
-95 91 0
93 -95 19 0
-93 -95 -19 0
93 95 -19 -91 0
-93 95 19 -91 0
-96 93 0
-96 91 0
-96 -19 0
96 -93 19 -91 0
97 93 -91 0
97 -93 91 0
-97 93 91 0
-97 -93 -91 0
-98 93 0
-98 91 0
98 -93 -91 0
99 28 -87 0
99 -28 87 0
-99 28 87 0
-99 -28 -87 0
100 32 -85 0
100 -32 85 0
-100 32 85 0
-100 -32 -85 0
-101 28 0
-101 85 0
-101 87 -32 0
-101 -87 32 0
101 -28 87 32 -85 0
101 -28 -87 -32 -85 0
102 -100 0
-102 100 0
103 28 -100 0
103 -28 100 0
-103 28 100 0
-103 -28 -100 0
-104 28 0
-104 100 0
104 -28 -100 0
105 -28 103 0
-105 28 103 0
-106 103 0
105 -106 -28 0
-105 -106 28 0
105 106 28 -103 0
-105 106 -28 -103 0
-107 103 0
105 -107 28 0
-105 -107 -28 0
105 107 -28 -103 0
-105 107 28 -103 0
-108 105 0
-108 103 0
-108 -28 0
108 -105 28 -103 0
109 105 -103 0
109 -105 103 0
-109 105 103 0
-109 -105 -103 0
-110 105 0
-110 103 0
110 -105 -103 0
111 37 -99 0
111 -37 99 0
-111 37 99 0
-111 -37 -99 0
112 41 -85 0
112 -41 85 0
-112 41 85 0
-112 -41 -85 0
-113 37 0
-113 85 0
-113 99 -41 0
-113 -99 41 0
113 -37 99 41 -85 0
113 -37 -99 -41 -85 0
114 37 -112 0
114 -37 112 0
-114 37 112 0
-114 -37 -112 0
-115 37 0
-115 112 0
115 -37 -112 0
116 -37 114 0
-116 37 114 0
-117 114 0
116 -117 -37 0
-116 -117 37 0
116 117 37 -114 0
-116 117 -37 -114 0
-118 114 0
116 -118 37 0
-116 -118 -37 0
116 118 -37 -114 0
-116 118 37 -114 0
-119 116 0
-119 114 0
-119 -37 0
119 -116 37 -114 0
120 116 -114 0
120 -116 114 0
-120 116 114 0
-120 -116 -114 0
-121 116 0
-121 114 0
121 -116 -114 0
122 45 -111 0
122 -45 111 0
-122 45 111 0
-122 -45 -111 0
123 49 -85 0
123 -49 85 0
-123 49 85 0
-123 -49 -85 0
-124 45 0
-124 85 0
-124 111 -49 0
-124 -111 49 0
124 -45 111 49 -85 0
124 -45 -111 -49 -85 0
125 -123 0
-125 123 0
126 45 -123 0
126 -45 123 0
-126 45 123 0
-126 -45 -123 0
-127 45 0
-127 123 0
127 -45 -123 0
128 -45 126 0
-128 45 126 0
-129 126 0
128 -129 -45 0
-128 -129 45 0
128 129 45 -126 0
-128 129 -45 -126 0
-130 126 0
128 -130 45 0
-128 -130 -45 0
128 130 -45 -126 0
-128 130 45 -126 0
-131 128 0
-131 126 0
-131 -45 0
131 -128 45 -126 0
132 128 -126 0
132 -128 126 0
-132 128 126 0
-132 -128 -126 0
-133 128 0
-133 126 0
133 -128 -126 0
134 54 -122 0
134 -54 122 0
-134 54 122 0
-134 -54 -122 0
135 58 -85 0
135 -58 85 0
-135 58 85 0
-135 -58 -85 0
-136 54 0
-136 85 0
-136 122 -58 0
-136 -122 58 0
136 -54 122 58 -85 0
136 -54 -122 -58 -85 0
137 54 -135 0
137 -54 135 0
-137 54 135 0
-137 -54 -135 0
-138 54 0
-138 135 0
138 -54 -135 0
139 -54 137 0
-139 54 137 0
-140 137 0
139 -140 -54 0
-139 -140 54 0
139 140 54 -137 0
-139 140 -54 -137 0
-141 137 0
139 -141 54 0
-139 -141 -54 0
139 141 -54 -137 0
-139 141 54 -137 0
-142 139 0
-142 137 0
-142 -54 0
142 -139 54 -137 0
143 139 -137 0
143 -139 137 0
-143 139 137 0
-143 -139 -137 0
-144 139 0
-144 137 0
144 -139 -137 0
145 62 -134 0
145 -62 134 0
-145 62 134 0
-145 -62 -134 0
146 66 -85 0
146 -66 85 0
-146 66 85 0
-146 -66 -85 0
-147 62 0
-147 85 0
-147 134 -66 0
-147 -134 66 0
147 -62 134 66 -85 0
147 -62 -134 -66 -85 0
148 -146 0
-148 146 0
149 62 -146 0
149 -62 146 0
-149 62 146 0
-149 -62 -146 0
-150 62 0
-150 146 0
150 -62 -146 0
151 -62 149 0
-151 62 149 0
-152 149 0
151 -152 -62 0
-151 -152 62 0
151 152 62 -149 0
-151 152 -62 -149 0
-153 149 0
151 -153 62 0
-151 -153 -62 0
151 153 -62 -149 0
-151 153 62 -149 0
-154 151 0
-154 149 0
-154 -62 0
154 -151 62 -149 0
155 151 -149 0
155 -151 149 0
-155 151 149 0
-155 -151 -149 0
-156 151 0
-156 149 0
156 -151 -149 0
157 71 -145 0
157 -71 145 0
-157 71 145 0
-157 -71 -145 0
158 75 -85 0
158 -75 85 0
-158 75 85 0
-158 -75 -85 0
-159 71 0
-159 85 0
-159 145 -75 0
-159 -145 75 0
159 -71 145 75 -85 0
159 -71 -145 -75 -85 0
160 -158 0
-160 158 0
161 71 -158 0
161 -71 158 0
-161 71 158 0
-161 -71 -158 0
-162 71 0
-162 158 0
162 -71 -158 0
163 -71 161 0
-163 71 161 0
-164 161 0
163 -164 -71 0
-163 -164 71 0
163 164 71 -161 0
-163 164 -71 -161 0
-165 161 0
163 -165 71 0
-163 -165 -71 0
163 165 -71 -161 0
-163 165 71 -161 0
-166 163 0
-166 161 0
-166 -71 0
166 -163 71 -161 0
167 163 -161 0
167 -163 161 0
-167 163 161 0
-167 -163 -161 0
-168 163 0
-168 161 0
168 -163 -161 0
-93 0
-105 0
-109 0
-116 0
-120 0
-128 0
-132 0
-139 0
-143 0
-151 0
-155 0
-163 0
-167 0
-157 0
-85 0
